Capacitated Plant Location.lp
\ENCODING=ISO-8859-1
\Problem name: ilog.cplex

Minimize
 obj: 220 y(1)#0 + 240 y(2)#1 + 260 y(3)#2 + 275 y(4)#3 + 240 y(5)#4
      + 230 y(6)#5 + 83.16 x(1)(1)#6 + 122.22 x(1)(2)#7 + 82.62 x(1)(3)#8
      + 133.5 x(1)(4)#9 + 81.81 x(1)(5)#10 + 65.7 x(1)(6)#11 + 52.89 x(1)(7)#12
      + 97.2 x(2)(1)#13 + 98.28 x(2)(2)#14 + 75.48 x(2)(3)#15 + 147 x(2)(4)#16
      + 40.5 x(2)(5)#17 + 70.2 x(2)(6)#18 + 110.94 x(2)(7)#19
      + 123.84 x(3)(1)#20 + 99.12 x(3)(2)#21 + 76.16 x(3)(3)#22
      + 130 x(3)(4)#23 + 79.92 x(3)(5)#24 + 38.4 x(3)(6)#25 + 101.48 x(3)(7)#26
      + 75.6 x(4)(1)#27 + 123.48 x(4)(2)#28 + 42.84 x(4)(3)#29 + 195 x(4)(4)#30
      + 72.9 x(4)(5)#31 + 88.2 x(4)(6)#32 + 59.34 x(4)(7)#33
      + 139.32 x(5)(1)#34 + 107.1 x(5)(2)#35 + 78.54 x(5)(3)#36
      + 121.5 x(5)(4)#37 + 36.45 x(5)(5)#38 + 65.7 x(5)(6)#39
      + 99.33 x(5)(7)#40 + 83.88 x(6)(1)#41 + 92.82 x(6)(2)#42
      + 124.1 x(6)(3)#43 + 134.5 x(6)(4)#44 + 75.87 x(6)(5)#45
      + 69.9 x(6)(6)#46 + 48.59 x(6)(7)#47
Subject To
 c1:  x(1)(1)#6 + x(2)(1)#13 + x(3)(1)#20 + x(4)(1)#27 + x(5)(1)#34
      + x(6)(1)#41  = 1
 c3:  x(1)(2)#7 + x(2)(2)#14 + x(3)(2)#21 + x(4)(2)#28 + x(5)(2)#35
      + x(6)(2)#42  = 1
 c5:  x(1)(3)#8 + x(2)(3)#15 + x(3)(3)#22 + x(4)(3)#29 + x(5)(3)#36
      + x(6)(3)#43  = 1
 c7:  x(1)(4)#9 + x(2)(4)#16 + x(3)(4)#23 + x(4)(4)#30 + x(5)(4)#37
      + x(6)(4)#44  = 1
 c9:  x(1)(5)#10 + x(2)(5)#17 + x(3)(5)#24 + x(4)(5)#31 + x(5)(5)#38
      + x(6)(5)#45  = 1
 c11: x(1)(6)#11 + x(2)(6)#18 + x(3)(6)#25 + x(4)(6)#32 + x(5)(6)#39
      + x(6)(6)#46  = 1
 c13: x(1)(7)#12 + x(2)(7)#19 + x(3)(7)#26 + x(4)(7)#33 + x(5)(7)#40
      + x(6)(7)#47  = 1
 c15: - 80 y(1)#0 + 36 x(1)(1)#6 + 42 x(1)(2)#7 + 34 x(1)(3)#8 + 50 x(1)(4)#9
      + 27 x(1)(5)#10 + 30 x(1)(6)#11 + 43 x(1)(7)#12 <= 0
 c17: - 90 y(2)#1 + 36 x(2)(1)#13 + 42 x(2)(2)#14 + 34 x(2)(3)#15
      + 50 x(2)(4)#16 + 27 x(2)(5)#17 + 30 x(2)(6)#18 + 43 x(2)(7)#19 <= 0
 c19: - 110 y(3)#2 + 36 x(3)(1)#20 + 42 x(3)(2)#21 + 34 x(3)(3)#22
      + 50 x(3)(4)#23 + 27 x(3)(5)#24 + 30 x(3)(6)#25 + 43 x(3)(7)#26 <= 0
 c21: - 120 y(4)#3 + 36 x(4)(1)#27 + 42 x(4)(2)#28 + 34 x(4)(3)#29
      + 50 x(4)(4)#30 + 27 x(4)(5)#31 + 30 x(4)(6)#32 + 43 x(4)(7)#33 <= 0
 c23: - 100 y(5)#4 + 36 x(5)(1)#34 + 42 x(5)(2)#35 + 34 x(5)(3)#36
      + 50 x(5)(4)#37 + 27 x(5)(5)#38 + 30 x(5)(6)#39 + 43 x(5)(7)#40 <= 0
 c25: - 120 y(6)#5 + 36 x(6)(1)#41 + 42 x(6)(2)#42 + 34 x(6)(3)#43
      + 50 x(6)(4)#44 + 27 x(6)(5)#45 + 30 x(6)(6)#46 + 43 x(6)(7)#47 <= 0
Bounds
 0 <= y(1)#0 <= 1
 0 <= y(2)#1 <= 1
 0 <= y(3)#2 <= 1
 0 <= y(4)#3 <= 1
 0 <= y(5)#4 <= 1
 0 <= y(6)#5 <= 1
 0 <= x(1)(1)#6 <= 1
 0 <= x(1)(2)#7 <= 1
 0 <= x(1)(3)#8 <= 1
 0 <= x(1)(4)#9 <= 1
 0 <= x(1)(5)#10 <= 1
 0 <= x(1)(6)#11 <= 1
 0 <= x(1)(7)#12 <= 1
 0 <= x(2)(1)#13 <= 1
 0 <= x(2)(2)#14 <= 1
 0 <= x(2)(3)#15 <= 1
 0 <= x(2)(4)#16 <= 1
 0 <= x(2)(5)#17 <= 1
 0 <= x(2)(6)#18 <= 1
 0 <= x(2)(7)#19 <= 1
 0 <= x(3)(1)#20 <= 1
 0 <= x(3)(2)#21 <= 1
 0 <= x(3)(3)#22 <= 1
 0 <= x(3)(4)#23 <= 1
 0 <= x(3)(5)#24 <= 1
 0 <= x(3)(6)#25 <= 1
 0 <= x(3)(7)#26 <= 1
 0 <= x(4)(1)#27 <= 1
 0 <= x(4)(2)#28 <= 1
 0 <= x(4)(3)#29 <= 1
 0 <= x(4)(4)#30 <= 1
 0 <= x(4)(5)#31 <= 1
 0 <= x(4)(6)#32 <= 1
 0 <= x(4)(7)#33 <= 1
 0 <= x(5)(1)#34 <= 1
 0 <= x(5)(2)#35 <= 1
 0 <= x(5)(3)#36 <= 1
 0 <= x(5)(4)#37 <= 1
 0 <= x(5)(5)#38 <= 1
 0 <= x(5)(6)#39 <= 1
 0 <= x(5)(7)#40 <= 1
 0 <= x(6)(1)#41 <= 1
 0 <= x(6)(2)#42 <= 1
 0 <= x(6)(3)#43 <= 1
 0 <= x(6)(4)#44 <= 1
 0 <= x(6)(5)#45 <= 1
 0 <= x(6)(6)#46 <= 1
 0 <= x(6)(7)#47 <= 1
Binaries
 y(1)#0  y(2)#1  y(3)#2  y(4)#3  y(5)#4  y(6)#5 
End
