Capacitated Plant Location.log
Tried aggregator 1 time.
Reduced MIP has 13 rows, 48 columns, and 90 nonzeros.
Reduced MIP has 6 binaries, 0 generals, 0 SOSs, and 0 indicators.
Presolve time = 0.00 sec. (0.03 ticks)
Found incumbent of value 2132.110000 after 0.00 sec. (0.14 ticks)
Probing time = 0.00 sec. (0.00 ticks)
Tried aggregator 1 time.
Reduced MIP has 13 rows, 48 columns, and 90 nonzeros.
Reduced MIP has 6 binaries, 0 generals, 0 SOSs, and 0 indicators.
Presolve time = 0.00 sec. (0.04 ticks)
Probing time = 0.00 sec. (0.00 ticks)
MIP emphasis: balance optimality and feasibility.
MIP search method: dynamic search.
Parallel mode: deterministic, using up to 4 threads.
Root relaxation solution time = 0.02 sec. (0.04 ticks)

        Nodes                                         Cuts/
   Node  Left     Objective  IInf  Best Integer    Best Bound    ItCnt     Gap

*     0+    0                         2132.1100        0.0000       17  100.00%
      0     0     1027.4258     3     2132.1100     1027.4258       17   51.81%
*     0+    0                         1461.2000     1027.4258       17   29.69%
      0     0     1215.8348     4     1461.2000      Cuts: 10       34   16.79%
*     0+    0                         1218.0800     1215.8348       34    0.18%
      0     0        cutoff           1218.0800                     36    0.00%
Elapsed time = 0.02 sec. (0.59 ticks, tree = 0.00 MB, solutions = 3)

Implied bound cuts applied:  4
Mixed integer rounding cuts applied:  1
Gomory fractional cuts applied:  1

Root node processing (before b&c):
  Real time             =    0.02 sec. (0.59 ticks)
Parallel b&c, 4 threads:
  Real time             =    0.00 sec. (0.00 ticks)
  Sync time (average)   =    0.00 sec.
  Wait time (average)   =    0.00 sec.
                          ------------
Total (root+branch&cut) =    0.02 sec. (0.59 ticks)

Solution status = Optimal

Total demand = 262.0
Total capacity = 620.0
Objective function value:1218.08

The values of variables y:

y[1]=1.0
y[5]=1.0
y[6]=1.0

The values of variables x :

x[1][1]=1.0
x[1][3]=0.32352941176470595
x[1][6]=1.0
x[5][3]=0.676470588235294
x[5][4]=1.0
x[5][5]=1.0
x[6][2]=1.0
x[6][7]=1.0
